96
raw_data/mm-rcpsp/MMLIB50/J5020_1.mm
Time limit set to 60 seconds
Running CP solver
/home/omastto1/General-Optimization-Solver/src/solvers/mmrcpsp.py:42(stream:276:6): Warning: Cumulative expression 'pulse': height is zero, expression is zero everywhere.
                                                                                               VarCumulAtom_419 = pulse(task_0_mode_0, 0)
/home/omastto1/General-Optimization-Solver/src/solvers/mmrcpsp.py:42(stream:276:3908): Warning: Cumulative expression 'pulse': height is zero, expression is zero everywhere.
                                                                                                  VarCumulAtom_570 = pulse(task_51_mode_0, 0)
/home/omastto1/General-Optimization-Solver/src/solvers/mmrcpsp.py:42(stream:277:6): Warning: Cumulative expression 'pulse': height is zero, expression is zero everywhere.
                                                                                               VarCumulAtom_574 = pulse(task_0_mode_0, 0)
/home/omastto1/General-Optimization-Solver/src/solvers/mmrcpsp.py:42(stream:277:3911): Warning: Cumulative expression 'pulse': height is zero, expression is zero everywhere.
                                                                                                  VarCumulAtom_725 = pulse(task_51_mode_0, 0)
 ! --------------------------------------------------- CP Optimizer 20.1.0.0 --
 ! Minimization problem - 205 variables, 272 constraints
 ! TimeLimit            = 60
 ! Workers              = 14
 ! LogVerbosity         = Terse
 ! Initial process time : 0.01s (0.01s extraction + 0.00s propagation)
 !  . Log search space  : 520.5 (before), 520.5 (after)
 !  . Memory usage      : 1.3 MB (before), 1.3 MB (after)
 ! Using parallel search with 14 workers.
 ! ----------------------------------------------------------------------------
 !          Best Branches  Non-fixed    W       Branch decision
                        0        205                 -
 + New bound is 29
 ! Using iterative diving.
 ! Using temporal relaxation.
 *            50      109  0.88s        1      (gap is 42.00%)
 *            46      269  0.88s        1      (gap is 36.96%)
 *            45      377  0.88s        1      (gap is 35.56%)
 *            44      543  0.88s        1      (gap is 34.09%)
 *            42      677  0.88s        1      (gap is 30.95%)
 *            40      785  0.88s        1      (gap is 27.50%)
 *            39      893  0.88s        1      (gap is 25.64%)
 *            38     1023  0.88s        1      (gap is 23.68%)
 *            37     1082  0.88s        1      (gap is 21.62%)
 *            36     1128  0.88s        1      (gap is 19.44%)
 *            35     1203  0.88s        1      (gap is 17.14%)
 *            34     1287  0.88s        4      (gap is 14.71%)
 *            33     1352  0.88s        4      (gap is 12.12%)
 ! Using failure-directed search.
 *            32     1592  1.62s        2      (gap is 9.38%)
 *            31     1748  1.62s        5      (gap is 6.45%)
 *            30     9572  4.44s        6      (gap is 3.33%)
              30     6587          2    1   F          presenceOf(task_37_mode_2)
 + New bound is 30 (gap is 0.00%)
 ! ----------------------------------------------------------------------------
 ! Search completed, 16 solutions found.
 ! Best objective         : 30 (optimal - effective tol. is 0)
 ! Best bound             : 30
 ! ----------------------------------------------------------------------------
 ! Number of branches     : 1515384
 ! Number of fails        : 280559
 ! Total memory usage     : 19.2 MB (19.0 MB CP Optimizer + 0.2 MB Concert)
 ! Time spent in solve    : 20.50s (20.50s engine + 0.01s extraction)
 ! Search speed (br. / s) : 73957.2
 ! ----------------------------------------------------------------------------
task_0: (start=0, end=0, size=0, length=0)
Task 0 is scheduled in mode 0 from 0 to 0
task_1: (start=0, end=7, size=7, length=7)
Task 1 is scheduled in mode 0 from 0 to 7
task_2: (start=0, end=5, size=5, length=5)
Task 2 is scheduled in mode 1 from 0 to 5
task_3: (start=0, end=8, size=8, length=8)
Task 3 is scheduled in mode 2 from 0 to 8
task_4: (start=0, end=2, size=2, length=2)
Task 4 is scheduled in mode 0 from 0 to 2
task_5: (start=0, end=10, size=10, length=10)
Task 5 is scheduled in mode 2 from 0 to 10
task_6: (start=7, end=9, size=2, length=2)
Task 6 is scheduled in mode 0 from 7 to 9
task_7: (start=0, end=5, size=5, length=5)
Task 7 is scheduled in mode 2 from 0 to 5
task_8: (start=5, end=14, size=9, length=9)
Task 8 is scheduled in mode 2 from 5 to 14
task_9: (start=0, end=7, size=7, length=7)
Task 9 is scheduled in mode 1 from 0 to 7
task_10: (start=2, end=7, size=5, length=5)
Task 10 is scheduled in mode 2 from 2 to 7
task_11: (start=0, end=4, size=4, length=4)
Task 11 is scheduled in mode 1 from 0 to 4
task_12: (start=9, end=16, size=7, length=7)
Task 12 is scheduled in mode 2 from 9 to 16
task_13: (start=7, end=14, size=7, length=7)
Task 13 is scheduled in mode 0 from 7 to 14
task_14: (start=4, end=13, size=9, length=9)
Task 14 is scheduled in mode 2 from 4 to 13
task_15: (start=4, end=12, size=8, length=8)
Task 15 is scheduled in mode 2 from 4 to 12
task_16: (start=0, end=3, size=3, length=3)
Task 16 is scheduled in mode 0 from 0 to 3
task_17: (start=9, end=16, size=7, length=7)
Task 17 is scheduled in mode 1 from 9 to 16
task_18: (start=9, end=16, size=7, length=7)
Task 18 is scheduled in mode 1 from 9 to 16
task_19: (start=5, end=14, size=9, length=9)
Task 19 is scheduled in mode 2 from 5 to 14
task_20: (start=8, end=11, size=3, length=3)
Task 20 is scheduled in mode 0 from 8 to 11
task_21: (start=16, end=18, size=2, length=2)
Task 21 is scheduled in mode 0 from 16 to 18
task_22: (start=10, end=19, size=9, length=9)
Task 22 is scheduled in mode 2 from 10 to 19
task_23: (start=14, end=23, size=9, length=9)
Task 23 is scheduled in mode 1 from 14 to 23
task_24: (start=23, end=25, size=2, length=2)
Task 24 is scheduled in mode 0 from 23 to 25
task_25: (start=18, end=25, size=7, length=7)
Task 25 is scheduled in mode 0 from 18 to 25
task_26: (start=16, end=19, size=3, length=3)
Task 26 is scheduled in mode 2 from 16 to 19
task_27: (start=16, end=26, size=10, length=10)
Task 27 is scheduled in mode 2 from 16 to 26
task_28: (start=19, end=28, size=9, length=9)
Task 28 is scheduled in mode 2 from 19 to 28
task_29: (start=13, end=16, size=3, length=3)
Task 29 is scheduled in mode 0 from 13 to 16
task_30: (start=3, end=9, size=6, length=6)
Task 30 is scheduled in mode 2 from 3 to 9
task_31: (start=2, end=9, size=7, length=7)
Task 31 is scheduled in mode 2 from 2 to 9
task_32: (start=25, end=30, size=5, length=5)
Task 32 is scheduled in mode 0 from 25 to 30
task_33: (start=27, end=30, size=3, length=3)
Task 33 is scheduled in mode 0 from 27 to 30
task_34: (start=25, end=28, size=3, length=3)
Task 34 is scheduled in mode 1 from 25 to 28
task_35: (start=19, end=26, size=7, length=7)
Task 35 is scheduled in mode 2 from 19 to 26
task_36: (start=28, end=30, size=2, length=2)
Task 36 is scheduled in mode 0 from 28 to 30
task_37: (start=20, end=29, size=9, length=9)
Task 37 is scheduled in mode 2 from 20 to 29
task_38: (start=25, end=30, size=5, length=5)
Task 38 is scheduled in mode 2 from 25 to 30
task_39: (start=16, end=18, size=2, length=2)
Task 39 is scheduled in mode 1 from 16 to 18
task_40: (start=23, end=30, size=7, length=7)
Task 40 is scheduled in mode 2 from 23 to 30
task_41: (start=18, end=28, size=10, length=10)
Task 41 is scheduled in mode 2 from 18 to 28
task_42: (start=19, end=29, size=10, length=10)
Task 42 is scheduled in mode 2 from 19 to 29
task_43: (start=14, end=23, size=9, length=9)
Task 43 is scheduled in mode 2 from 14 to 23
task_44: (start=17, end=27, size=10, length=10)
Task 44 is scheduled in mode 2 from 17 to 27
task_45: (start=16, end=20, size=4, length=4)
Task 45 is scheduled in mode 1 from 16 to 20
task_46: (start=19, end=27, size=8, length=8)
Task 46 is scheduled in mode 2 from 19 to 27
task_47: (start=9, end=17, size=8, length=8)
Task 47 is scheduled in mode 2 from 9 to 17
task_48: (start=13, end=23, size=10, length=10)
Task 48 is scheduled in mode 2 from 13 to 23
task_49: (start=11, end=12, size=1, length=1)
Task 49 is scheduled in mode 0 from 11 to 12
task_50: (start=9, end=17, size=8, length=8)
Task 50 is scheduled in mode 2 from 9 to 17
task_51: (start=30, end=30, size=0, length=0)
Task 51 is scheduled in mode 0 from 30 to 30
Optimal solution found
Objective value: 30
Solution is 3.4 % worse than the lower bound.
